% seed = 5472642

mint = 47;
% maxt = 108;

nActs = 22;
dur = [0,7,2,7,9,8,4,1,4,2,10,2,2,2,8,7,8,8,3,8,6,0];

nSkills = 4;
sreq = [| 0,0,0,0,
	| 0,2,2,3,
	| 0,2,1,3,
	| 3,0,3,2,
	| 1,2,0,3,
	| 2,1,0,1,
	| 3,0,1,3,
	| 2,0,3,1,
	| 1,1,0,3,
	| 0,1,2,1,
	| 0,2,2,2,
	| 3,2,3,0,
	| 2,2,2,0,
	| 0,1,2,2,
	| 3,1,0,3,
	| 2,3,3,0,
	| 3,0,2,2,
	| 2,0,1,1,
	| 3,2,0,1,
	| 0,3,1,1,
	| 0,1,3,1,
	| 0,0,0,0, |];

nResources = 25;
mastery = [| false,false,true,false,
	| false,true,false,false,
	| true,true,false,true,
	| true,false,false,false,
	| true,false,true,true,
	| false,false,true,true,
	| false,true,true,true,
	| false,true,true,true,
	| true,false,true,true,
	| true,true,false,false,
	| false,true,true,true,
	| false,false,false,true,
	| true,false,false,false,
	| true,true,false,false,
	| false,false,true,false,
	| false,true,true,true,
	| false,false,true,false,
	| false,true,true,false,
	| false,false,true,false,
	| true,true,false,false,
	| true,false,false,false,
	| false,false,false,true,
	| true,true,false,false,
	| false,false,true,true,
	| true,false,true,true, |];

nPrecs = 43;
pred = [1,1,1,2,2,2,3,3,3,4,5,5,5,6,6,6,7,7,7,8,8,9,9,10,10,10,11,11,12,12,13,13,13,14,15,16,16,17,18,18,19,20,21];
succ = [2,3,4,18,13,14,10,5,7,20,11,13,6,9,14,8,9,12,16,17,16,19,15,11,12,16,18,15,13,14,19,21,15,21,17,18,20,20,19,21,22,22,22];

nUnrels = 81;
unpred = [2,2,2,2,2,2,2,2,2,2,2,3,4,4,4,4,4,4,4,4,4,4,4,4,4,4,4,4,5,5,5,6,6,6,6,6,7,7,7,8,8,8,8,8,8,8,9,9,9,9,9,9,9,9,11,11,11,11,12,12,13,13,13,14,14,14,14,14,14,15,15,15,15,16,17,17,17,18,19,19,20];
unsucc = [3,4,5,6,7,8,9,10,11,12,16,4,5,6,7,8,9,10,11,12,13,14,15,16,17,18,19,21,7,10,12,7,10,11,12,13,8,10,11,9,10,11,12,13,14,15,10,11,12,13,14,16,18,21,12,13,14,16,16,18,14,16,18,15,16,17,18,19,20,16,18,19,21,17,18,19,21,20,20,21,21];

USEFUL_RES = [{},
	{1,2,3,5,6,7,8,9,10,11,12,14,15,16,17,18,19,20,22,23,24,25},
	{1,2,3,5,6,7,8,9,10,11,12,14,15,16,17,18,19,20,22,23,24,25},
	{1,3,4,5,6,7,8,9,10,11,12,13,14,15,16,17,18,19,20,21,22,23,24,25},
	{2,3,4,5,6,7,8,9,10,11,12,13,14,16,18,20,21,22,23,24,25},
	{2,3,4,5,6,7,8,9,10,11,12,13,14,16,18,20,21,22,23,24,25},
	{1,3,4,5,6,7,8,9,10,11,12,13,14,15,16,17,18,19,20,21,22,23,24,25},
	{1,3,4,5,6,7,8,9,10,11,12,13,14,15,16,17,18,19,20,21,22,23,24,25},
	{2,3,4,5,6,7,8,9,10,11,12,13,14,16,18,20,21,22,23,24,25},
	{1,2,3,5,6,7,8,9,10,11,12,14,15,16,17,18,19,20,22,23,24,25},
	{1,2,3,5,6,7,8,9,10,11,12,14,15,16,17,18,19,20,22,23,24,25},
	{1,2,3,4,5,6,7,8,9,10,11,13,14,15,16,17,18,19,20,21,23,24,25},
	{1,2,3,4,5,6,7,8,9,10,11,13,14,15,16,17,18,19,20,21,23,24,25},
	{1,2,3,5,6,7,8,9,10,11,12,14,15,16,17,18,19,20,22,23,24,25},
	{2,3,4,5,6,7,8,9,10,11,12,13,14,16,18,20,21,22,23,24,25},
	{1,2,3,4,5,6,7,8,9,10,11,13,14,15,16,17,18,19,20,21,23,24,25},
	{1,3,4,5,6,7,8,9,10,11,12,13,14,15,16,17,18,19,20,21,22,23,24,25},
	{1,3,4,5,6,7,8,9,10,11,12,13,14,15,16,17,18,19,20,21,22,23,24,25},
	{2,3,4,5,6,7,8,9,10,11,12,13,14,16,18,20,21,22,23,24,25},
	{1,2,3,5,6,7,8,9,10,11,12,14,15,16,17,18,19,20,22,23,24,25},
	{1,2,3,5,6,7,8,9,10,11,12,14,15,16,17,18,19,20,22,23,24,25},
	{}];

POTENTIAL_ACT = [{2,3,4,7,8,10,11,12,13,14,16,17,18,20,21},
	{2,3,5,6,9,10,11,12,13,14,15,16,19,20,21},
	{2,3,4,5,6,7,8,9,10,11,12,13,14,15,16,17,18,19,20,21},
	{4,5,6,7,8,9,12,13,15,16,17,18,19},
	{2,3,4,5,6,7,8,9,10,11,12,13,14,15,16,17,18,19,20,21},
	{2,3,4,5,6,7,8,9,10,11,12,13,14,15,16,17,18,19,20,21},
	{2,3,4,5,6,7,8,9,10,11,12,13,14,15,16,17,18,19,20,21},
	{2,3,4,5,6,7,8,9,10,11,12,13,14,15,16,17,18,19,20,21},
	{2,3,4,5,6,7,8,9,10,11,12,13,14,15,16,17,18,19,20,21},
	{2,3,4,5,6,7,8,9,10,11,12,13,14,15,16,17,18,19,20,21},
	{2,3,4,5,6,7,8,9,10,11,12,13,14,15,16,17,18,19,20,21},
	{2,3,4,5,6,7,8,9,10,11,14,15,17,18,19,20,21},
	{4,5,6,7,8,9,12,13,15,16,17,18,19},
	{2,3,4,5,6,7,8,9,10,11,12,13,14,15,16,17,18,19,20,21},
	{2,3,4,7,8,10,11,12,13,14,16,17,18,20,21},
	{2,3,4,5,6,7,8,9,10,11,12,13,14,15,16,17,18,19,20,21},
	{2,3,4,7,8,10,11,12,13,14,16,17,18,20,21},
	{2,3,4,5,6,7,8,9,10,11,12,13,14,15,16,17,18,19,20,21},
	{2,3,4,7,8,10,11,12,13,14,16,17,18,20,21},
	{2,3,4,5,6,7,8,9,10,11,12,13,14,15,16,17,18,19,20,21},
	{4,5,6,7,8,9,12,13,15,16,17,18,19},
	{2,3,4,5,6,7,8,9,10,11,14,15,17,18,19,20,21},
	{2,3,4,5,6,7,8,9,10,11,12,13,14,15,16,17,18,19,20,21},
	{2,3,4,5,6,7,8,9,10,11,12,13,14,15,16,17,18,19,20,21},
	{2,3,4,5,6,7,8,9,10,11,12,13,14,15,16,17,18,19,20,21}];
